p wcnf 8 29 115
115 1 2 0
115 1 3 0
115 1 5 0
115 1 6 0
115 1 8 0
115 2 3 0
115 2 4 0
115 2 5 0
115 2 6 0
115 2 7 0
115 2 8 0
115 3 4 0
115 3 5 0
115 3 8 0
115 4 5 0
115 4 7 0
115 4 8 0
115 5 7 0
115 5 8 0
115 6 7 0
115 7 8 0
4 -1 0
2 -2 0
4 -3 0
4 -4 0
3 -5 0
6 -6 0
4 -7 0
3 -8 0
